
Route #1: 7 50 36 37 30 44 29 49 26 40 18 38 51 
Route #2: 39 25 41 17 47 9 48 16 15 19 
Route #3: 31 35 27 46 10 
Route #4: 20 33 28 32 43 23 2 
Route #5: 4 52 13 42 12 45 22 1 
Route #6: 3 5 14 21 34 24 
Route #7: 6 8 11 
cost 1544.49
total time is 5.4